computational_data/solutions/ER_n40_p035_s6.sol
Optimal - objective value 8.00000000
      5 r_5                         1                       1
      7 r_7                         1                       1
     15 r_15                        1                       1
     17 r_17                        1                       1
     41 b_1                         1                       1
     44 b_4                         1                       1
     65 b_25                        1                       1
     72 b_32                        1                       1
