computational_data/logs/ER_n40_p035_s6.log
Welcome to the CBC MILP Solver 
Version: 2.10.12 
Build Date: Aug 20 2024 

command line - /opt/homebrew/bin/cbc computational_data/lp/ER_n40_p035_s6.lp seconds 10.0 solve solu computational_data/solutions/ER_n40_p035_s6.sol (default strategy 1)
seconds was changed from 1e+100 to 10
Continuous objective value is 5.5295 - 0.00 seconds
Cgl0003I 0 fixed, 0 tightened bounds, 403 strengthened rows, 0 substitutions
Cgl0003I 0 fixed, 0 tightened bounds, 264 strengthened rows, 0 substitutions
Cgl0003I 0 fixed, 0 tightened bounds, 114 strengthened rows, 0 substitutions
Cgl0003I 0 fixed, 0 tightened bounds, 37 strengthened rows, 0 substitutions
Cgl0003I 0 fixed, 0 tightened bounds, 7 strengthened rows, 0 substitutions
Cgl0003I 0 fixed, 0 tightened bounds, 4 strengthened rows, 0 substitutions
Cgl0003I 0 fixed, 0 tightened bounds, 1 strengthened rows, 0 substitutions
Cgl0004I processed model has 434 rows, 80 columns (80 integer (80 of which binary)) and 2475 elements
Cutoff increment increased from 1e-05 to 0.9999
Cbc0038I Initial state - 38 integers unsatisfied sum - 5.5295
Cbc0038I Pass   1: suminf.    5.53355 (37) obj. 5.53355 iterations 5
Cbc0038I Pass   2: suminf.    5.75710 (31) obj. 7.29972 iterations 74
Cbc0038I Pass   3: suminf.    4.15306 (22) obj. 8.43878 iterations 40
Cbc0038I Pass   4: suminf.    2.51852 (16) obj. 9.48148 iterations 18
Cbc0038I Pass   5: suminf.    0.00000 (0) obj. 10 iterations 41
Cbc0038I Solution found of 10
Cbc0038I Before mini branch and bound, 30 integers at bound fixed and 0 continuous
Cbc0038I Full problem 434 rows 80 columns, reduced to 319 rows 50 columns - 4 fixed gives 12, 6 - ok now
Cbc0038I Full problem 434 rows 80 columns, reduced to 5 rows 4 columns
Cbc0038I Mini branch and bound did not improve solution (0.03 seconds)
Cbc0038I Round again with cutoff of 8.65304
Cbc0038I Pass   6: suminf.    5.53355 (37) obj. 5.53355 iterations 0
Cbc0038I Pass   7: suminf.    6.54808 (25) obj. 6.54808 iterations 52
Cbc0038I Pass   8: suminf.    5.55381 (30) obj. 6.82415 iterations 35
Cbc0038I Pass   9: suminf.    4.95946 (26) obj. 7.52703 iterations 31
Cbc0038I Pass  10: suminf.    7.65304 (17) obj. 8.65304 iterations 73
Cbc0038I Pass  11: suminf.    4.75713 (31) obj. 6.00908 iterations 90
Cbc0038I Pass  12: suminf.    4.38075 (28) obj. 6.18385 iterations 34
Cbc0038I Pass  13: suminf.    3.48729 (20) obj. 6.64831 iterations 47
Cbc0038I Pass  14: suminf.    3.06757 (18) obj. 7.06757 iterations 67
Cbc0038I Pass  15: suminf.    4.65304 (10) obj. 8.65304 iterations 70
Cbc0038I Pass  16: suminf.    6.84801 (26) obj. 8.65304 iterations 83
Cbc0038I Pass  17: suminf.    3.69392 (19) obj. 8.65304 iterations 50
Cbc0038I Pass  18: suminf.    3.38369 (16) obj. 8.65304 iterations 38
Cbc0038I Pass  19: suminf.    4.28826 (14) obj. 8.65304 iterations 76
Cbc0038I Pass  20: suminf.    2.85714 (14) obj. 8.57143 iterations 52
Cbc0038I Pass  21: suminf.    3.79340 (21) obj. 8.65304 iterations 53
Cbc0038I Pass  22: suminf.    3.11823 (20) obj. 8.11823 iterations 55
Cbc0038I Pass  23: suminf.    3.13732 (13) obj. 8.65304 iterations 70
Cbc0038I Pass  24: suminf.    2.45455 (12) obj. 8.36364 iterations 80
Cbc0038I Pass  25: suminf.    3.43472 (20) obj. 8.65304 iterations 120
Cbc0038I Pass  26: suminf.    1.52044 (12) obj. 8.65304 iterations 46
Cbc0038I Pass  27: suminf.    1.04088 (3) obj. 8.65304 iterations 60
Cbc0038I Pass  28: suminf.    0.84262 (19) obj. 8.65304 iterations 49
Cbc0038I Pass  29: suminf.    5.14103 (28) obj. 7.03846 iterations 125
Cbc0038I Pass  30: suminf.    4.77020 (33) obj. 7.2399 iterations 54
Cbc0038I Pass  31: suminf.    6.17241 (25) obj. 7.62069 iterations 71
Cbc0038I Pass  32: suminf.    3.97098 (24) obj. 7.96834 iterations 47
Cbc0038I Pass  33: suminf.    3.63889 (17) obj. 8.25 iterations 41
Cbc0038I Pass  34: suminf.    4.84696 (14) obj. 8.65304 iterations 77
Cbc0038I Pass  35: suminf.    3.64072 (30) obj. 8.01198 iterations 57
Cbc0038I Rounding solution of 8 is better than previous of 10

Cbc0038I Before mini branch and bound, 3 integers at bound fixed and 0 continuous
Cbc0038I Full problem 434 rows 80 columns, reduced to 429 rows 77 columns - 3 fixed gives 221, 42 - still too large
Cbc0038I Mini branch and bound did not improve solution (0.10 seconds)
Cbc0038I Round again with cutoff of 6.70598
Cbc0038I Pass  35: suminf.    5.53355 (37) obj. 5.53355 iterations 0
Cbc0038I Pass  36: suminf.    6.62735 (22) obj. 6.70598 iterations 61
Cbc0038I Pass  37: suminf.    5.18543 (33) obj. 6.18543 iterations 81
Cbc0038I Pass  38: suminf.    5.70598 (17) obj. 6.70598 iterations 42
Cbc0038I Pass  39: suminf.    6.50629 (26) obj. 6.70598 iterations 61
Cbc0038I Pass  40: suminf.    4.37782 (28) obj. 6.18148 iterations 62
Cbc0038I Pass  41: suminf.    3.49057 (21) obj. 6.6478 iterations 40
Cbc0038I Pass  42: suminf.    3.01841 (30) obj. 6.70598 iterations 52
Cbc0038I Pass  43: suminf.    4.16813 (22) obj. 6.70598 iterations 44
Cbc0038I Pass  44: suminf.    3.46897 (29) obj. 6.70598 iterations 38
Cbc0038I Pass  45: suminf.    6.70598 (24) obj. 6.70598 iterations 71
Cbc0038I Pass  46: suminf.    5.53355 (37) obj. 5.53355 iterations 54
Cbc0038I Pass  47: suminf.    6.52289 (24) obj. 6.70598 iterations 65
Cbc0038I Pass  48: suminf.    4.94774 (33) obj. 6.70598 iterations 53
Cbc0038I Pass  49: suminf.    5.92336 (25) obj. 6.70598 iterations 48
Cbc0038I Pass  50: suminf.    4.71140 (30) obj. 6.70598 iterations 54
Cbc0038I Pass  51: suminf.    6.12602 (27) obj. 6.70598 iterations 42
Cbc0038I Pass  52: suminf.    4.93275 (35) obj. 6.39063 iterations 54
Cbc0038I Pass  53: suminf.    5.79145 (19) obj. 6.70598 iterations 39
Cbc0038I Pass  54: suminf.    4.31513 (24) obj. 6.46334 iterations 64
Cbc0038I Pass  55: suminf.    3.86157 (28) obj. 6.70598 iterations 59
Cbc0038I Pass  56: suminf.    3.25113 (36) obj. 6.70598 iterations 44
Cbc0038I Pass  57: suminf.    5.88649 (26) obj. 6.70598 iterations 67
Cbc0038I Pass  58: suminf.    4.96391 (36) obj. 6.70598 iterations 64
Cbc0038I Pass  59: suminf.    6.53077 (27) obj. 6.70598 iterations 51
Cbc0038I Pass  60: suminf.    5.17672 (36) obj. 6.1289 iterations 64
Cbc0038I Pass  61: suminf.    4.56919 (36) obj. 6.42442 iterations 44
Cbc0038I Pass  62: suminf.    6.48250 (23) obj. 6.70598 iterations 71
Cbc0038I Pass  63: suminf.    5.10099 (32) obj. 6.02217 iterations 70
Cbc0038I Pass  64: suminf.    4.38075 (28) obj. 6.18385 iterations 50
Cbc0038I No solution found this major pass
Cbc0038I Before mini branch and bound, 2 integers at bound fixed and 0 continuous
Cbc0038I Full problem 434 rows 80 columns, reduced to 430 rows 78 columns - 2 fixed gives 225, 45 - still too large
Cbc0038I Mini branch and bound did not improve solution (0.15 seconds)
Cbc0038I After 0.15 seconds - Feasibility pump exiting with objective of 8 - took 0.13 seconds
Cbc0012I Integer solution of 8 found by feasibility pump after 0 iterations and 0 nodes (0.15 seconds)
Cbc0031I 8 added rows had average density of 80
Cbc0013I At root node, 8 cuts changed objective from 5.5294958 to 5.7121356 in 100 passes
Cbc0014I Cut generator 0 (Probing) - 0 row cuts average 0.0 elements, 0 column cuts (0 active)  in 0.070 seconds - new frequency is -100
Cbc0014I Cut generator 1 (Gomory) - 621 row cuts average 80.0 elements, 0 column cuts (0 active)  in 0.038 seconds - new frequency is -100
Cbc0014I Cut generator 2 (Knapsack) - 0 row cuts average 0.0 elements, 0 column cuts (0 active)  in 0.006 seconds - new frequency is -100
Cbc0014I Cut generator 3 (Clique) - 0 row cuts average 0.0 elements, 0 column cuts (0 active)  in 0.011 seconds - new frequency is -100
Cbc0014I Cut generator 4 (MixedIntegerRounding2) - 5 row cuts average 80.0 elements, 0 column cuts (0 active)  in 0.030 seconds - new frequency is -100
Cbc0014I Cut generator 5 (FlowCover) - 0 row cuts average 0.0 elements, 0 column cuts (0 active)  in 0.002 seconds - new frequency is -100
Cbc0010I After 0 nodes, 1 on tree, 8 best solution, best possible 5.7121356 (0.55 seconds)
Cbc0038I Full problem 434 rows 80 columns, reduced to 187 rows 35 columns
Cbc0001I Search completed - best objective 8, took 8132 iterations and 90 nodes (1.51 seconds)
Cbc0032I Strong branching done 1328 times (32741 iterations), fathomed 14 nodes and fixed 6 variables
Cbc0035I Maximum depth 21, 313 variables fixed on reduced cost
Cuts at root node changed objective from 5.5295 to 5.71214
Probing was tried 100 times and created 0 cuts of which 0 were active after adding rounds of cuts (0.070 seconds)
Gomory was tried 100 times and created 621 cuts of which 0 were active after adding rounds of cuts (0.038 seconds)
Knapsack was tried 100 times and created 0 cuts of which 0 were active after adding rounds of cuts (0.006 seconds)
Clique was tried 100 times and created 0 cuts of which 0 were active after adding rounds of cuts (0.011 seconds)
MixedIntegerRounding2 was tried 100 times and created 5 cuts of which 0 were active after adding rounds of cuts (0.030 seconds)
FlowCover was tried 100 times and created 0 cuts of which 0 were active after adding rounds of cuts (0.002 seconds)
TwoMirCuts was tried 1 times and created 0 cuts of which 0 were active after adding rounds of cuts (0.001 seconds)
ZeroHalf was tried 1 times and created 0 cuts of which 0 were active after adding rounds of cuts (0.001 seconds)

Result - Optimal solution found

Objective value:                8.00000000
Enumerated nodes:               90
Total iterations:               8132
Time (CPU seconds):             1.51
Time (Wallclock seconds):       1.56

Total time (CPU seconds):       1.51   (Wallclock seconds):       1.56

